NAME          
ROWS
 N  OBJ
 L  c1
 L  c2
 L  c3
 L  c4
 L  c5
COLUMNS
    MARKER    'MARKER'                 'INTORG'
    x[1]      c1        806
    x[1]      c2        194
    x[1]      c3        668
    x[1]      c4        901
    x[1]      c5        335
    x[1]      OBJ       -199
    x[2]      c1        518
    x[2]      c2        56
    x[2]      c3        298
    x[2]      c4        372
    x[2]      c5        316
    x[2]      OBJ       -73
    x[3]      c1        973
    x[3]      c2        86
    x[3]      c3        347
    x[3]      c4        90
    x[3]      c5        935
    x[3]      OBJ       -673
    x[4]      c1        933
    x[4]      c2        953
    x[4]      c3        864
    x[4]      c4        806
    x[4]      c5        478
    x[4]      OBJ       -775
    x[5]      c1        495
    x[5]      c2        485
    x[5]      c3        437
    x[5]      c4        521
    x[5]      c5        726
    x[5]      OBJ       -514
    x[6]      c1        309
    x[6]      c2        462
    x[6]      c3        575
    x[6]      c4        492
    x[6]      c5        871
    x[6]      OBJ       -381
    x[7]      c1        207
    x[7]      c2        901
    x[7]      c3        947
    x[7]      c4        613
    x[7]      c5        217
    x[7]      OBJ       -749
    x[8]      c1        543
    x[8]      c2        84
    x[8]      c3        507
    x[8]      c4        765
    x[8]      c5        766
    x[8]      OBJ       -283
    x[9]      c1        101
    x[9]      c2        370
    x[9]      c3        579
    x[9]      c4        955
    x[9]      c5        302
    x[9]      OBJ       -317
    x[10]     c1        458
    x[10]     c2        147
    x[10]     c3        621
    x[10]     c4        593
    x[10]     c5        726
    x[10]     OBJ       -941
RHS
    rhs       c1        2672
    rhs       c2        1869
    rhs       c3        2922
    rhs       c4        3054
    rhs       c5        2836
RANGES
BOUNDS
 BV bounds    x[1]
 BV bounds    x[2]
 BV bounds    x[3]
 BV bounds    x[4]
 BV bounds    x[5]
 BV bounds    x[6]
 BV bounds    x[7]
 BV bounds    x[8]
 BV bounds    x[9]
 BV bounds    x[10]
ENDATA
